\ LP format - for model browsing. Use MPS format to capture full model detail.
Maximize
  69.12 x_00 + 46.08 x_01 + 92.16 x_02 + 115.2 x_03 + 138.24 x_04
   + 92.16 x_05 + 46.08 x_06 + 138.24 x_10 + 46.08 x_11 + 115.2 x_12
   + 138.24 x_13 + 46.08 x_14 + 92.16 x_15 + 138.24 x_16 + 92.16 x_20
   + 92.16 x_21 + 138.24 x_22 + 115.2 x_23 + 138.24 x_24 + 138.24 x_25
   + 92.16 x_26 + 138.24 x_30 + 92.16 x_31 + 69.12 x_32 + 92.16 x_33
   + 69.12 x_34 + 46.08 x_35 + 46.08 x_36 + 69.12 x_40 + 138.24 x_41
   + 115.2 x_42 + 69.12 x_43 + 115.2 x_44 + 92.16 x_45 + 138.24 x_46
   + 92.16 x_50 + 115.2 x_51 + 92.16 x_52 + 115.2 x_53 + 46.08 x_54
   + 115.2 x_55 + 69.12 x_56 + 69.12 x_60 + 46.08 x_61 + 115.2 x_62
   + 115.2 x_63 + 115.2 x_64 + 115.2 x_65 + 115.2 x_66 + 115.2 x_70
   + 115.2 x_71 + 69.12 x_72 + 138.24 x_73 + 46.08 x_74 + 46.08 x_75
   + 92.16 x_76 + 92.16 x_80 + 46.08 x_81 + 92.16 x_82 + 69.12 x_83
   + 138.24 x_84 + 46.08 x_85 + 69.12 x_86 + 69.12 x_90 + 92.16 x_91
   + 92.16 x_92 + 92.16 x_93 + 138.24 x_94 + 138.24 x_95 + 115.2 x_96
   + 92.16 x_100 + 138.24 x_101 + 138.24 x_102 + 115.2 x_103 + 138.24 x_104
   + 138.24 x_105 + 115.2 x_106 + 69.12 x_110 + 138.24 x_111 + 92.16 x_112
   + 92.16 x_113 + 69.12 x_114 + 69.12 x_115 + 92.16 x_116 + 69.12 x_120
   + 69.12 x_121 + 69.12 x_122 + 138.24 x_123 + 138.24 x_124 + 115.2 x_125
   + 46.08 x_126 + 115.2 x_130 + 138.24 x_131 + 69.12 x_132 + 46.08 x_133
   + 69.12 x_134 + 115.2 x_135 + 115.2 x_136 + 92.16 x_140 + 92.16 x_141
   + 46.08 x_142 + 115.2 x_143 + 138.24 x_144 + 69.12 x_145 + 92.16 x_146
   + 92.16 x_150 + 92.16 x_151 + 46.08 x_152 + 46.08 x_153 + 92.16 x_154
   + 138.24 x_155 + 69.12 x_156 + 138.24 x_160 + 69.12 x_161 + 115.2 x_162
   + 69.12 x_163 + 138.24 x_164 + 92.16 x_165 + 69.12 x_166 + 115.2 x_170
   + 46.08 x_171 + 69.12 x_172 + 115.2 x_173 + 46.08 x_174 + 115.2 x_175
   + 138.24 x_176 + 69.12 x_180 + 46.08 x_181 + 92.16 x_182 + 69.12 x_183
   + 69.12 x_184 + 92.16 x_185 + 92.16 x_186 + 115.2 x_190 + 92.16 x_191
   + 115.2 x_192 + 115.2 x_193 + 115.2 x_194 + 69.12 x_195 + 92.16 x_196
   - 880 b_0 - 880 b_1 - 880 b_2 - 880 b_3 - 880 b_4 - 880 b_5 - 880 b_6
Subject To
 R0: 12 x_00 + 15 x_10 + 12 x_20 + 15 x_30 + 12 x_40 + 12 x_50 + 12 x_60
   + 15 x_70 + 12 x_80 + 12 x_90 + 12 x_100 + 12 x_110 + 12 x_120
   + 15 x_130 + 12 x_140 + 12 x_150 + 15 x_160 + 15 x_170 + 12 x_180
   + 15 x_190 + s_0 - e_0 = 10
 R1: 9 x_01 + 9 x_11 + 12 x_21 + 12 x_31 + 15 x_41 + 15 x_51 + 9 x_61
   + 15 x_71 + 9 x_81 + 12 x_91 + 15 x_101 + 15 x_111 + 12 x_121 + 15 x_131
   + 12 x_141 + 12 x_151 + 12 x_161 + 9 x_171 + 9 x_181 + 12 x_191 + s_1
   - e_1 = 10
 R2: 12 x_02 + 15 x_12 + 15 x_22 + 12 x_32 + 15 x_42 + 12 x_52 + 15 x_62
   + 12 x_72 + 12 x_82 + 12 x_92 + 15 x_102 + 12 x_112 + 12 x_122
   + 12 x_132 + 9 x_142 + 9 x_152 + 15 x_162 + 12 x_172 + 12 x_182
   + 15 x_192 + s_2 - e_2 = 10
 R3: 15 x_03 + 15 x_13 + 15 x_23 + 12 x_33 + 12 x_43 + 15 x_53 + 15 x_63
   + 15 x_73 + 12 x_83 + 12 x_93 + 15 x_103 + 12 x_113 + 15 x_123 + 9 x_133
   + 15 x_143 + 9 x_153 + 12 x_163 + 15 x_173 + 12 x_183 + 15 x_193 + s_3
   - e_3 = 10
 R4: 15 x_04 + 9 x_14 + 15 x_24 + 12 x_34 + 15 x_44 + 9 x_54 + 15 x_64
   + 9 x_74 + 15 x_84 + 15 x_94 + 15 x_104 + 12 x_114 + 15 x_124 + 12 x_134
   + 15 x_144 + 12 x_154 + 15 x_164 + 9 x_174 + 12 x_184 + 15 x_194 + s_4
   - e_4 = 10
 R5: 12 x_05 + 12 x_15 + 15 x_25 + 9 x_35 + 12 x_45 + 15 x_55 + 15 x_65
   + 9 x_75 + 9 x_85 + 15 x_95 + 15 x_105 + 12 x_115 + 15 x_125 + 15 x_135
   + 12 x_145 + 15 x_155 + 12 x_165 + 15 x_175 + 12 x_185 + 12 x_195 + s_5
   - e_5 = 10
 R6: 9 x_06 + 15 x_16 + 12 x_26 + 9 x_36 + 15 x_46 + 12 x_56 + 15 x_66
   + 12 x_76 + 12 x_86 + 15 x_96 + 15 x_106 + 12 x_116 + 9 x_126 + 15 x_136
   + 12 x_146 + 12 x_156 + 12 x_166 + 15 x_176 + 12 x_186 + 12 x_196 + s_6
   - e_6 = 10
 R7: - 1e+06 b_0 + e_0 >= -999999
 R8: - 1e+06 b_1 + e_1 >= -999999
 R9: - 1e+06 b_2 + e_2 >= -999999
 R10: - 1e+06 b_3 + e_3 >= -999999
 R11: - 1e+06 b_4 + e_4 >= -999999
 R12: - 1e+06 b_5 + e_5 >= -999999
 R13: - 1e+06 b_6 + e_6 >= -999999
 R14: e_0 <= 2
 R15: e_1 <= 2
 R16: e_2 <= 2
 R17: e_3 <= 2
 R18: e_4 <= 2
 R19: e_5 <= 2
 R20: e_6 <= 2
 R21: x_00 <= 1
 R22: x_10 <= 1
 R23: x_20 <= 1
 R24: x_30 <= 1
 R25: x_40 <= 1
 R26: x_50 <= 1
 R27: x_60 <= 1
 R28: x_70 <= 1
 R29: x_80 <= 1
 R30: x_90 <= 1
 R31: x_100 <= 1
 R32: x_110 <= 1
 R33: x_120 <= 1
 R34: x_130 <= 1
 R35: x_140 <= 1
 R36: x_150 <= 1
 R37: x_160 <= 1
 R38: x_170 <= 1
 R39: x_180 <= 1
 R40: x_190 <= 1
 R41: x_01 <= 1
 R42: x_11 <= 1
 R43: x_21 <= 1
 R44: x_31 <= 1
 R45: x_41 <= 1
 R46: x_51 <= 1
 R47: x_61 <= 1
 R48: x_71 <= 1
 R49: x_81 <= 1
 R50: x_91 <= 1
 R51: x_101 <= 1
 R52: x_111 <= 1
 R53: x_121 <= 1
 R54: x_131 <= 1
 R55: x_141 <= 1
 R56: x_151 <= 1
 R57: x_161 <= 1
 R58: x_171 <= 1
 R59: x_181 <= 1
 R60: x_191 <= 1
 R61: x_02 <= 1
 R62: x_12 <= 1
 R63: x_22 <= 1
 R64: x_32 <= 1
 R65: x_42 <= 1
 R66: x_52 <= 1
 R67: x_62 <= 1
 R68: x_72 <= 1
 R69: x_82 <= 1
 R70: x_92 <= 1
 R71: x_102 <= 1
 R72: x_112 <= 1
 R73: x_122 <= 1
 R74: x_132 <= 1
 R75: x_142 <= 1
 R76: x_152 <= 1
 R77: x_162 <= 1
 R78: x_172 <= 1
 R79: x_182 <= 1
 R80: x_192 <= 1
 R81: x_03 <= 1
 R82: x_13 <= 1
 R83: x_23 <= 1
 R84: x_33 <= 1
 R85: x_43 <= 1
 R86: x_53 <= 1
 R87: x_63 <= 1
 R88: x_73 <= 1
 R89: x_83 <= 1
 R90: x_93 <= 1
 R91: x_103 <= 1
 R92: x_113 <= 1
 R93: x_123 <= 1
 R94: x_133 <= 1
 R95: x_143 <= 1
 R96: x_153 <= 1
 R97: x_163 <= 1
 R98: x_173 <= 1
 R99: x_183 <= 1
 R100: x_193 <= 1
 R101: x_04 <= 1
 R102: x_14 <= 1
 R103: x_24 <= 1
 R104: x_34 <= 1
 R105: x_44 <= 1
 R106: x_54 <= 1
 R107: x_64 <= 1
 R108: x_74 <= 1
 R109: x_84 <= 1
 R110: x_94 <= 1
 R111: x_104 <= 1
 R112: x_114 <= 1
 R113: x_124 <= 1
 R114: x_134 <= 1
 R115: x_144 <= 1
 R116: x_154 <= 1
 R117: x_164 <= 1
 R118: x_174 <= 1
 R119: x_184 <= 1
 R120: x_194 <= 1
 R121: x_05 <= 1
 R122: x_15 <= 1
 R123: x_25 <= 1
 R124: x_35 <= 1
 R125: x_45 <= 1
 R126: x_55 <= 1
 R127: x_65 <= 1
 R128: x_75 <= 1
 R129: x_85 <= 1
 R130: x_95 <= 1
 R131: x_105 <= 1
 R132: x_115 <= 1
 R133: x_125 <= 1
 R134: x_135 <= 1
 R135: x_145 <= 1
 R136: x_155 <= 1
 R137: x_165 <= 1
 R138: x_175 <= 1
 R139: x_185 <= 1
 R140: x_195 <= 1
 R141: x_06 <= 1
 R142: x_16 <= 1
 R143: x_26 <= 1
 R144: x_36 <= 1
 R145: x_46 <= 1
 R146: x_56 <= 1
 R147: x_66 <= 1
 R148: x_76 <= 1
 R149: x_86 <= 1
 R150: x_96 <= 1
 R151: x_106 <= 1
 R152: x_116 <= 1
 R153: x_126 <= 1
 R154: x_136 <= 1
 R155: x_146 <= 1
 R156: x_156 <= 1
 R157: x_166 <= 1
 R158: x_176 <= 1
 R159: x_186 <= 1
 R160: x_196 <= 1
Bounds
Binaries
 x_00 x_01 x_02 x_03 x_04 x_05 x_06 x_10 x_11 x_12 x_13 x_14 x_15 x_16 x_20
 x_21 x_22 x_23 x_24 x_25 x_26 x_30 x_31 x_32 x_33 x_34 x_35 x_36 x_40 x_41
 x_42 x_43 x_44 x_45 x_46 x_50 x_51 x_52 x_53 x_54 x_55 x_56 x_60 x_61 x_62
 x_63 x_64 x_65 x_66 x_70 x_71 x_72 x_73 x_74 x_75 x_76 x_80 x_81 x_82 x_83
 x_84 x_85 x_86 x_90 x_91 x_92 x_93 x_94 x_95 x_96 x_100 x_101 x_102 x_103
 x_104 x_105 x_106 x_110 x_111 x_112 x_113 x_114 x_115 x_116 x_120 x_121
 x_122 x_123 x_124 x_125 x_126 x_130 x_131 x_132 x_133 x_134 x_135 x_136
 x_140 x_141 x_142 x_143 x_144 x_145 x_146 x_150 x_151 x_152 x_153 x_154
 x_155 x_156 x_160 x_161 x_162 x_163 x_164 x_165 x_166 x_170 x_171 x_172
 x_173 x_174 x_175 x_176 x_180 x_181 x_182 x_183 x_184 x_185 x_186 x_190
 x_191 x_192 x_193 x_194 x_195 x_196 b_0 b_1 b_2 b_3 b_4 b_5 b_6
Generals
 s_0 s_1 s_2 s_3 s_4 s_5 s_6 e_0 e_1 e_2 e_3 e_4 e_5 e_6
End
